param sigma
: 1   2 :=
1 0.00001 0.99999
2 0.10000 0.90000
3 0.20000 0.80000
4 0.30000 0.70000
5 0.40000 0.60000
6 0.50000 0.50000
7 0.90000 0.10000
8 0.80000 0.20000
9 0.70000 0.30000
10 0.60000 0.40000
11 0.99999 0.00001
;

set S:=
1 2 3 4 5 6 7 8 9 10 11 12 13 14 15 16 17 18 19 20 21 22 23 24 25 26 27 28 29 30 31 32 33 34 35 36 37 38 39 40 41 42 43 44 45 46 47 48 49 50 51 52 53 54 55 56 57 58 59 60 61 62 63 64 65 66 67 68 69 70 71 72 73 74 75 76 77 78 79 80 81 82 83 84 ;

set C:=
1 2 3 4 5 6 7 8 9 10 11 12 ;

set A:=
1 2 3 4 5 6 7 8 9 10 11 12 13 14 15 16 17 18 19 20 21 22 23 24 ;

set T:=
1_1_2 1_3_4 1_5_6 1_7_8 1_9_10
2_1_2 2_3_4 2_5_6 2_7_8 2_9_10
;

set R:=
1 2 3 4 5 ;

set Ac[1]:=
1 2 ;
set Ac[2]:=
3 4 ;
set Ac[3]:=
5 6 ;
set Ac[4]:=
7 8 ;
set Ac[5]:=
9 10 ;
set Ac[6]:=
11 12 ;
set Ac[7]:=
13 14 ;
set Ac[8]:=
15 16 ;
set Ac[9]:=
17 18 ;
set Ac[10]:=
19 20 ;
set Ac[11]:=
21 22 ;
set Ac[12]:=
23 24 ;

set Cs[1]:=
4 6 8 10 9 ;
set Cs[2]:=
4 6 3 10 8 9 2 ;
set Cs[3]:=
4 6 11 10 9 8 ;
set Cs[4]:=
4 9 10 8 6 3 ;
set Cs[5]:=
10 4 6 8 9 3 5 ;
set Cs[6]:=
4 10 6 9 8 3 12 ;
set Cs[7]:=
4 10 5 8 6 9 3 ;
set Cs[8]:=
4 8 3 10 9 6 11 ;
set Cs[9]:=
4 10 9 8 3 ;
set Cs[10]:=
4 9 10 6 8 ;
set Cs[11]:=
4 6 10 8 9 3 ;
set Cs[12]:=
4 9 10 2 6 8 ;
set Cs[13]:=
4 1 6 10 8 9 3 ;
set Cs[14]:=
4 9 10 6 8 5 ;
set Cs[15]:=
4 6 10 8 9 3 1 ;
set Cs[16]:=
4 10 9 3 8 ;
set Cs[17]:=
4 8 10 6 3 9 2 ;
set Cs[18]:=
4 8 10 6 9 ;
set Cs[19]:=
4 10 6 9 8 ;
set Cs[20]:=
4 10 6 8 9 1 ;
set Cs[21]:=
4 10 9 6 8 3 ;
set Cs[22]:=
4 6 9 8 10 12 3 ;
set Cs[23]:=
4 10 6 9 8 3 ;
set Cs[24]:=
4 8 6 9 10 3 ;
set Cs[25]:=
4 10 6 9 8 ;
set Cs[26]:=
4 8 10 9 6 7 3 ;
set Cs[27]:=
4 6 3 10 9 8 5 ;
set Cs[28]:=
4 10 6 8 9 3 ;
set Cs[29]:=
4 6 9 10 3 8 ;
set Cs[30]:=
4 9 8 10 6 3 1 ;
set Cs[31]:=
4 6 8 10 2 ;
set Cs[32]:=
4 3 10 6 8 9 12 ;
set Cs[33]:=
4 9 10 8 6 3 12 ;
set Cs[34]:=
4 10 9 6 8 3 5 ;
set Cs[35]:=
4 10 9 6 8 1 3 ;
set Cs[36]:=
4 10 8 6 9 ;
set Cs[37]:=
4 10 8 6 9 3 ;
set Cs[38]:=
4 10 6 3 9 8 ;
set Cs[39]:=
4 6 10 8 9 3 11 ;
set Cs[40]:=
4 9 10 8 3 6 5 ;
set Cs[41]:=
4 6 8 10 9 3 12 ;
set Cs[42]:=
10 4 8 6 3 9 ;
set Cs[43]:=
4 10 8 6 9 3 ;
set Cs[44]:=
4 6 7 9 10 8 2 ;
set Cs[45]:=
4 8 10 9 6 ;
set Cs[46]:=
4 10 6 3 8 ;
set Cs[47]:=
4 10 8 9 6 3 12 ;
set Cs[48]:=
4 10 8 9 2 6 ;
set Cs[49]:=
4 9 10 8 6 3 ;
set Cs[50]:=
4 8 10 6 9 3 12 ;
set Cs[51]:=
4 10 6 9 8 ;
set Cs[52]:=
4 10 6 8 9 ;
set Cs[53]:=
4 8 9 10 1 ;
set Cs[54]:=
4 10 6 8 9 3 ;
set Cs[55]:=
4 10 6 9 8 11 3 ;
set Cs[56]:=
4 6 8 10 9 7 5 ;
set Cs[57]:=
4 10 8 5 12 ;
set Cs[58]:=
4 10 3 9 8 6 5 ;
set Cs[59]:=
4 6 9 8 10 3 2 ;
set Cs[60]:=
4 6 10 9 8 ;
set Cs[61]:=
4 8 10 9 6 ;
set Cs[62]:=
4 10 6 9 8 ;
set Cs[63]:=
4 10 8 9 6 3 2 ;
set Cs[64]:=
4 10 6 8 3 ;
set Cs[65]:=
4 10 3 6 8 9 12 ;
set Cs[66]:=
4 9 10 8 6 ;
set Cs[67]:=
4 8 10 9 6 5 ;
set Cs[68]:=
4 6 10 9 3 8 2 ;
set Cs[69]:=
4 6 10 8 9 2 12 ;
set Cs[70]:=
4 10 8 3 9 2 ;
set Cs[71]:=
4 10 1 9 3 8 6 ;
set Cs[72]:=
4 10 8 6 9 ;
set Cs[73]:=
4 10 9 6 8 ;
set Cs[74]:=
4 10 3 9 8 ;
set Cs[75]:=
4 10 6 8 9 3 2 ;
set Cs[76]:=
4 9 2 8 10 ;
set Cs[77]:=
4 8 10 6 9 5 ;
set Cs[78]:=
4 10 8 9 6 2 3 ;
set Cs[79]:=
4 10 6 8 9 3 ;
set Cs[80]:=
4 10 6 8 9 3 1 ;
set Cs[81]:=
4 9 10 6 8 3 ;
set Cs[82]:=
4 10 9 8 6 ;
set Cs[83]:=
4 10 8 6 9 3 5 ;
set Cs[84]:=
4 6 8 9 10 2 ;

set Ra[1]:=
1 2 3 4 5 ;
set Ra[2]:=
1 2 3 4 5 ;
set Ra[3]:=
1 2 3 4 5 ;
set Ra[4]:=
1 2 3 4 5 ;
set Ra[5]:=
1 2 3 4 5 ;
set Ra[6]:=
1 2 3 4 5 ;
set Ra[7]:=
1 2 3 4 5 ;
set Ra[8]:=
1 2 3 4 5 ;
set Ra[9]:=
1 2 3 4 5 ;
set Ra[10]:=
1 2 3 4 5 ;
set Ra[11]:=
1 2 3 4 5 ;
set Ra[12]:=
1 2 3 4 5 ;
set Ra[13]:=
1 2 3 4 5 ;
set Ra[14]:=
1 2 3 4 5 ;
set Ra[15]:=
1 2 3 4 5 ;
set Ra[16]:=
1 2 3 4 5 ;
set Ra[17]:=
1 2 3 4 5 ;
set Ra[18]:=
1 2 3 4 5 ;
set Ra[19]:=
1 2 3 4 5 ;
set Ra[20]:=
1 2 3 4 5 ;
set Ra[21]:=
1 2 3 4 5 ;
set Ra[22]:=
1 2 3 4 5 ;
set Ra[23]:=
1 2 3 4 5 ;
set Ra[24]:=
1 2 3 4 5 ;

set Ts[1]:=
2_7_8 1_7_8 ;
set Ts[2]:=
1_9_10 2_1_2 ;
set Ts[3]:=
1_1_2 2_5_6 2_3_4 ;
set Ts[4]:=
1_3_4 1_5_6 2_7_8 2_3_4 ;
set Ts[5]:=
2_1_2 2_5_6 1_7_8 ;
set Ts[6]:=
1_1_2 2_7_8 2_9_10 ;
set Ts[7]:=
1_3_4 1_1_2 2_9_10 2_3_4 ;
set Ts[8]:=
2_3_4 2_9_10 1_9_10 1_7_8 ;
set Ts[9]:=
1_1_2 1_5_6 ;
set Ts[10]:=
1_5_6 2_7_8 ;
set Ts[11]:=
1_5_6 1_3_4 ;
set Ts[12]:=
1_7_8 2_9_10 2_7_8 1_9_10 ;
set Ts[13]:=
1_1_2 2_1_2 ;
set Ts[14]:=
1_5_6 1_1_2 2_1_2 ;
set Ts[15]:=
1_7_8 2_7_8 ;
set Ts[16]:=
1_3_4 1_7_8 ;
set Ts[17]:=
1_9_10 2_1_2 2_5_6 ;
set Ts[18]:=
2_9_10 2_1_2 1_9_10 2_7_8 ;
set Ts[19]:=
2_9_10 1_3_4 1_9_10 1_1_2 ;
set Ts[20]:=
2_7_8 1_3_4 ;
set Ts[21]:=
2_5_6 2_9_10 ;
set Ts[22]:=
2_5_6 2_3_4 1_9_10 ;
set Ts[23]:=
2_9_10 1_3_4 ;
set Ts[24]:=
2_1_2 1_9_10 2_5_6 ;
set Ts[25]:=
1_5_6 2_1_2 2_9_10 1_7_8 ;
set Ts[26]:=
2_1_2 2_9_10 1_7_8 ;
set Ts[27]:=
1_5_6 2_9_10 2_1_2 ;
set Ts[28]:=
2_9_10 1_5_6 1_9_10 2_5_6 ;
set Ts[29]:=
1_7_8 2_5_6 1_1_2 1_3_4 ;
set Ts[30]:=
1_5_6 1_9_10 2_3_4 ;
set Ts[31]:=
1_1_2 2_5_6 1_9_10 ;
set Ts[32]:=
2_3_4 2_5_6 1_9_10 1_5_6 ;
set Ts[33]:=
2_7_8 2_3_4 2_5_6 1_7_8 ;
set Ts[34]:=
2_9_10 1_9_10 1_7_8 ;
set Ts[35]:=
2_5_6 1_3_4 1_1_2 1_9_10 ;
set Ts[36]:=
1_1_2 2_7_8 2_5_6 ;
set Ts[37]:=
2_5_6 1_1_2 1_3_4 2_3_4 ;
set Ts[38]:=
2_3_4 2_7_8 1_9_10 ;
set Ts[39]:=
2_1_2 1_3_4 1_5_6 ;
set Ts[40]:=
2_1_2 2_5_6 2_7_8 1_7_8 ;
set Ts[41]:=
1_5_6 1_7_8 2_9_10 1_1_2 ;
set Ts[42]:=
2_9_10 1_7_8 2_5_6 1_1_2 ;
set Ts[43]:=
2_7_8 1_1_2 2_3_4 1_5_6 ;
set Ts[44]:=
2_9_10 2_1_2 2_5_6 ;
set Ts[45]:=
1_9_10 1_5_6 1_1_2 2_7_8 ;
set Ts[46]:=
2_5_6 2_9_10 1_9_10 ;
set Ts[47]:=
1_3_4 2_3_4 2_9_10 ;
set Ts[48]:=
1_9_10 2_3_4 ;
set Ts[49]:=
2_9_10 2_5_6 1_9_10 ;
set Ts[50]:=
2_9_10 1_9_10 ;
set Ts[51]:=
2_9_10 1_5_6 1_3_4 ;
set Ts[52]:=
1_7_8 1_1_2 ;
set Ts[53]:=
2_5_6 1_3_4 2_9_10 2_3_4 ;
set Ts[54]:=
2_9_10 2_3_4 2_7_8 1_9_10 ;
set Ts[55]:=
2_9_10 1_5_6 1_3_4 1_1_2 ;
set Ts[56]:=
1_5_6 2_9_10 2_3_4 2_1_2 ;
set Ts[57]:=
2_3_4 1_9_10 2_9_10 ;
set Ts[58]:=
2_5_6 1_9_10 2_1_2 ;
set Ts[59]:=
1_9_10 2_1_2 ;
set Ts[60]:=
1_9_10 1_3_4 2_7_8 2_9_10 ;
set Ts[61]:=
1_9_10 2_9_10 1_5_6 ;
set Ts[62]:=
2_1_2 1_3_4 ;
set Ts[63]:=
1_3_4 1_1_2 2_7_8 ;
set Ts[64]:=
2_7_8 2_9_10 ;
set Ts[65]:=
2_7_8 2_9_10 1_5_6 ;
set Ts[66]:=
1_1_2 2_5_6 2_9_10 ;
set Ts[67]:=
2_7_8 2_1_2 1_9_10 ;
set Ts[68]:=
1_9_10 2_1_2 1_5_6 ;
set Ts[69]:=
2_3_4 1_3_4 1_5_6 1_1_2 ;
set Ts[70]:=
2_1_2 2_7_8 ;
set Ts[71]:=
2_5_6 1_5_6 1_1_2 2_9_10 ;
set Ts[72]:=
2_3_4 2_5_6 ;
set Ts[73]:=
1_5_6 2_7_8 2_9_10 ;
set Ts[74]:=
2_3_4 1_7_8 ;
set Ts[75]:=
2_1_2 1_3_4 2_7_8 2_5_6 ;
set Ts[76]:=
1_3_4 2_7_8 2_3_4 2_1_2 ;
set Ts[77]:=
1_9_10 2_5_6 1_1_2 1_3_4 ;
set Ts[78]:=
1_7_8 2_3_4 1_3_4 ;
set Ts[79]:=
2_3_4 2_7_8 2_5_6 1_9_10 ;
set Ts[80]:=
1_3_4 1_7_8 2_1_2 2_9_10 ;
set Ts[81]:=
2_7_8 1_9_10 1_7_8 ;
set Ts[82]:=
1_7_8 1_5_6 2_7_8 2_9_10 ;
set Ts[83]:=
1_9_10 2_5_6 ;
set Ts[84]:=
2_3_4 2_1_2 2_5_6 2_7_8 ;

param rho:=
1 84
2 84
3 84
4 84
5 84
;

param sigma_class:=
1 84
2 84
3 84
4 84
5 84
6 84
7 84
8 84
9 84
10 84
11 84
12 84
;

param kmin:=
1 2
2 3
3 3
4 3
5 3
6 3
7 3
8 3
9 2
10 2
11 3
12 3
13 3
14 3
15 3
16 2
17 3
18 2
19 2
20 3
21 3
22 3
23 3
24 3
25 2
26 3
27 3
28 3
29 3
30 3
31 2
32 3
33 3
34 3
35 3
36 2
37 3
38 3
39 3
40 3
41 3
42 3
43 3
44 3
45 2
46 2
47 3
48 3
49 3
50 3
51 2
52 2
53 2
54 3
55 3
56 3
57 2
58 3
59 3
60 2
61 2
62 2
63 3
64 2
65 3
66 2
67 3
68 3
69 3
70 3
71 3
72 2
73 2
74 2
75 3
76 2
77 3
78 3
79 3
80 3
81 3
82 2
83 3
84 3
;

param kmax:=
1 5
2 7
3 6
4 6
5 7
6 7
7 7
8 7
9 5
10 5
11 6
12 6
13 7
14 6
15 7
16 5
17 7
18 5
19 5
20 6
21 6
22 7
23 6
24 6
25 5
26 7
27 7
28 6
29 6
30 7
31 5
32 7
33 7
34 7
35 7
36 5
37 6
38 6
39 7
40 7
41 7
42 6
43 6
44 7
45 5
46 5
47 7
48 6
49 6
50 7
51 5
52 5
53 5
54 6
55 7
56 7
57 5
58 7
59 7
60 5
61 5
62 5
63 7
64 5
65 7
66 5
67 6
68 7
69 7
70 6
71 7
72 5
73 5
74 5
75 7
76 5
77 6
78 7
79 6
80 7
81 6
82 5
83 7
84 6
;

